p cnf 109 347
3 1 0
3 2 0
-1 -2 -3 0
1 4 -5 0
-1 -4 -5 0
1 -4 5 0
-1 4 5 0
6 7 -8 0
-6 -7 -8 0
6 -7 8 0
-6 7 8 0
-9 -6 0
-9 -8 0
6 8 9 0
10 -5 0
10 -9 0
5 9 -10 0
-11 -3 0
-11 -10 0
3 10 11 0
-12 -10 0
-12 -7 0
10 7 12 0
-13 -11 0
-13 12 0
11 -12 13 0
17 -15 0
17 16 0
15 -16 -17 0
18 -14 0
18 17 0
14 -17 -18 0
-20 19 0
-20 -6 0
-19 6 20 0
-3 -20 -21 0
3 20 -21 0
-3 20 21 0
3 -20 21 0
18 -21 -22 0
-18 21 -22 0
18 21 22 0
-18 -21 22 0
16 -15 -23 0
-16 15 -23 0
16 15 23 0
-16 -15 23 0
24 20 0
24 23 0
-20 -23 -24 0
25 -3 0
25 7 0
3 -7 -25 0
27 25 0
27 -26 0
-25 26 -27 0
28 24 0
28 27 0
-24 -27 -28 0
-29 -16 -30 0
29 16 -30 0
-29 16 30 0
29 -16 30 0
31 -5 0
31 -10 0
5 10 -31 0
-32 30 0
-32 31 0
-30 -31 32 0
33 -28 0
33 -32 0
28 32 -33 0
-34 -25 0
-34 -17 0
25 17 34 0
37 -35 0
37 36 0
35 -36 -37 0
36 -38 0
-36 -38 0
37 38 -39 0
-37 -38 -39 0
37 -38 39 0
-37 38 39 0
-39 40 -41 0
39 -40 -41 0
-39 -40 41 0
39 40 41 0
42 17 0
42 -29 0
-17 29 -42 0
43 -42 0
43 3 0
42 -3 -43 0
-44 -41 0
-44 -43 0
41 43 44 0
-45 -34 0
-45 -44 0
34 44 45 0
-47 46 0
-47 3 0
-46 -3 47 0
17 -48 -49 0
-17 48 -49 0
17 48 49 0
-17 -48 49 0
50 -23 0
50 49 0
23 -49 -50 0
-51 -18 0
-51 -35 0
18 35 51 0
-52 -3 0
-52 -51 0
3 51 52 0
14 52 -53 0
-14 -52 -53 0
14 -52 53 0
-14 52 53 0
53 -1 -54 0
-53 1 -54 0
53 1 54 0
-53 -1 54 0
55 -42 0
55 21 0
42 -21 -55 0
56 54 0
56 55 0
-54 -55 -56 0
-57 50 0
-57 -56 0
-50 56 57 0
47 -57 -58 0
-47 57 -58 0
47 57 58 0
-47 -57 58 0
59 -45 0
59 -58 0
45 58 -59 0
-60 33 0
-60 -59 0
-33 59 60 0
-61 22 0
-61 -60 0
-22 60 61 0
62 -21 0
62 -7 0
21 7 -62 0
-63 20 0
-63 -16 0
-20 16 63 0
-64 62 0
-64 63 0
-62 -63 64 0
-65 -64 0
-65 62 0
64 -62 65 0
-4 66 0
4 66 0
-67 -17 0
-67 66 0
17 -66 67 0
68 -29 0
68 40 0
29 -40 -68 0
69 -67 0
69 -68 0
67 68 -69 0
-70 -65 0
-70 69 0
65 -69 70 0
-71 -61 0
-71 70 0
61 -70 71 0
-18 15 -72 0
18 -15 -72 0
-18 -15 72 0
18 15 72 0
-73 16 0
-73 -21 0
-16 21 73 0
-6 -46 -74 0
6 46 -74 0
-6 46 74 0
6 -46 74 0
-75 7 0
-75 14 0
-7 -14 75 0
76 74 0
76 -75 0
-74 75 -76 0
77 -73 0
77 76 0
73 -76 -77 0
78 72 0
78 -77 0
-72 77 -78 0
79 -6 0
79 19 0
6 -19 -79 0
-49 6 -80 0
49 -6 -80 0
-49 -6 80 0
49 6 80 0
81 -6 0
81 -16 0
6 16 -81 0
-81 35 -82 0
81 -35 -82 0
-81 -35 82 0
81 35 82 0
80 82 -83 0
-80 -82 -83 0
80 -82 83 0
-80 82 83 0
84 -79 0
84 83 0
79 -83 -84 0
-85 -78 0
-85 -84 0
78 84 85 0
-86 71 0
-86 85 0
-71 -85 86 0
13 -86 -87 0
-13 86 -87 0
13 86 87 0
-13 -86 87 0
88 17 0
88 -1 0
-17 1 -88 0
-89 3 0
-89 -3 0
90 -89 0
90 -67 0
89 67 -90 0
91 88 0
91 90 0
-88 -90 -91 0
-92 14 0
-92 -48 0
-14 48 92 0
93 -9 0
93 -66 0
9 66 -93 0
94 93 0
94 -53 0
-93 53 -94 0
92 94 -95 0
-92 -94 -95 0
92 -94 95 0
-92 94 95 0
-6 -37 -96 0
6 37 -96 0
-6 37 96 0
6 -37 96 0
-96 3 -97 0
96 -3 -97 0
-96 -3 97 0
96 3 97 0
-10 -3 -98 0
10 3 -98 0
-10 3 98 0
10 -3 98 0
-99 97 0
-99 -98 0
-97 98 99 0
-100 -95 0
-100 99 0
95 -99 100 0
-101 3 0
-101 -66 0
-3 66 101 0
102 101 0
102 36 0
-101 -36 -102 0
-103 5 0
-103 -92 0
-5 92 103 0
104 -68 0
104 98 0
68 -98 -104 0
103 104 -105 0
-103 -104 -105 0
103 -104 105 0
-103 104 105 0
102 105 -106 0
-102 -105 -106 0
102 -105 106 0
-102 105 106 0
107 -100 0
107 106 0
100 -106 -107 0
-91 107 -108 0
91 -107 -108 0
-91 -107 108 0
91 107 108 0
109 87 0
109 -108 0
-87 108 -109 0
7 51 0
59 17 -27 93 37 0
47 67 54 -104 0
46 47 -61 -74 109 -65 0
-27 78 33 0
-92 -68 -54 -34 87 0
-55 -57 59 6 0
-10 51 46 93 50 -64 0
-82 102 45 98 99 31 0
23 20 11 -66 -77 0
-12 -55 42 -30 6 0
-35 -20 78 0
96 -15 25 0
36 -97 0
-33 -77 -60 -105 68 0
-5 43 0
106 30 -67 44 0
39 26 43 -82 -86 0
69 -7 -72 53 0
13 -69 0
36 -11 58 10 0
76 90 46 0
54 81 58 -93 0
100 -13 -14 54 12 0
-51 57 53 -14 -65 0
16 -38 -32 77 14 104 0
103 -60 0
48 15 0
-9 -55 -15 103 65 0
31 36 -70 -11 48 108 0
-90 54 0
54 -106 0
26 85 9 -60 -29 45 0
-36 -28 62 -88 81 0
66 -26 0
25 55 -15 38 0
-46 59 0
15 -16 0
-83 38 96 80 69 0
-108 -6 -16 -11 0
-65 36 108 -40 0
-102 77 -59 93 0
14 51 -59 7 0
89 -39 47 60 0
-39 95 -89 0
109 0
